source/SMT/n4.smt2
(set-logic ALL)
; benchmark generated from python API
(set-info :status unknown)
(declare-fun m_0_1_w2_p1 () Bool)
(declare-fun m_0_1_w2_p0 () Bool)
(declare-fun m_0_1_w1_p1 () Bool)
(declare-fun m_0_1_w1_p0 () Bool)
(declare-fun m_0_1_w0_p1 () Bool)
(declare-fun m_0_1_w0_p0 () Bool)
(declare-fun m_0_2_w2_p1 () Bool)
(declare-fun m_0_2_w2_p0 () Bool)
(declare-fun m_0_2_w1_p1 () Bool)
(declare-fun m_0_2_w1_p0 () Bool)
(declare-fun m_0_2_w0_p1 () Bool)
(declare-fun m_0_2_w0_p0 () Bool)
(declare-fun m_0_3_w2_p1 () Bool)
(declare-fun m_0_3_w2_p0 () Bool)
(declare-fun m_0_3_w1_p1 () Bool)
(declare-fun m_0_3_w1_p0 () Bool)
(declare-fun m_0_3_w0_p1 () Bool)
(declare-fun m_0_3_w0_p0 () Bool)
(declare-fun m_1_2_w2_p1 () Bool)
(declare-fun m_1_2_w2_p0 () Bool)
(declare-fun m_1_2_w1_p1 () Bool)
(declare-fun m_1_2_w1_p0 () Bool)
(declare-fun m_1_2_w0_p1 () Bool)
(declare-fun m_1_2_w0_p0 () Bool)
(declare-fun m_1_3_w2_p1 () Bool)
(declare-fun m_1_3_w2_p0 () Bool)
(declare-fun m_1_3_w1_p1 () Bool)
(declare-fun m_1_3_w1_p0 () Bool)
(declare-fun m_1_3_w0_p1 () Bool)
(declare-fun m_1_3_w0_p0 () Bool)
(declare-fun m_2_3_w2_p1 () Bool)
(declare-fun m_2_3_w2_p0 () Bool)
(declare-fun m_2_3_w1_p1 () Bool)
(declare-fun m_2_3_w1_p0 () Bool)
(declare-fun m_2_3_w0_p1 () Bool)
(declare-fun m_2_3_w0_p0 () Bool)
(assert
 (let ((?x48 (ite m_0_1_w2_p1 1 0)))
 (let ((?x47 (ite m_0_1_w2_p0 1 0)))
 (let ((?x46 (ite m_0_1_w1_p1 1 0)))
 (let ((?x45 (ite m_0_1_w1_p0 1 0)))
 (let ((?x44 (ite m_0_1_w0_p1 1 0)))
 (let ((?x43 (ite m_0_1_w0_p0 1 0)))
 (= (+ ?x43 ?x44 ?x45 ?x46 ?x47 ?x48) 1))))))))
(assert
 (let ((?x73 (ite m_0_2_w2_p1 1 0)))
 (let ((?x72 (ite m_0_2_w2_p0 1 0)))
 (let ((?x71 (ite m_0_2_w1_p1 1 0)))
 (let ((?x70 (ite m_0_2_w1_p0 1 0)))
 (let ((?x69 (ite m_0_2_w0_p1 1 0)))
 (let ((?x68 (ite m_0_2_w0_p0 1 0)))
 (= (+ ?x68 ?x69 ?x70 ?x71 ?x72 ?x73) 1))))))))
(assert
 (let ((?x81 (ite m_0_3_w2_p1 1 0)))
 (let ((?x80 (ite m_0_3_w2_p0 1 0)))
 (let ((?x79 (ite m_0_3_w1_p1 1 0)))
 (let ((?x78 (ite m_0_3_w1_p0 1 0)))
 (let ((?x77 (ite m_0_3_w0_p1 1 0)))
 (let ((?x76 (ite m_0_3_w0_p0 1 0)))
 (= (+ ?x76 ?x77 ?x78 ?x79 ?x80 ?x81) 1))))))))
(assert
 (let ((?x89 (ite m_1_2_w2_p1 1 0)))
 (let ((?x88 (ite m_1_2_w2_p0 1 0)))
 (let ((?x87 (ite m_1_2_w1_p1 1 0)))
 (let ((?x86 (ite m_1_2_w1_p0 1 0)))
 (let ((?x85 (ite m_1_2_w0_p1 1 0)))
 (let ((?x84 (ite m_1_2_w0_p0 1 0)))
 (= (+ ?x84 ?x85 ?x86 ?x87 ?x88 ?x89) 1))))))))
(assert
 (let ((?x97 (ite m_1_3_w2_p1 1 0)))
 (let ((?x96 (ite m_1_3_w2_p0 1 0)))
 (let ((?x95 (ite m_1_3_w1_p1 1 0)))
 (let ((?x94 (ite m_1_3_w1_p0 1 0)))
 (let ((?x93 (ite m_1_3_w0_p1 1 0)))
 (let ((?x92 (ite m_1_3_w0_p0 1 0)))
 (= (+ ?x92 ?x93 ?x94 ?x95 ?x96 ?x97) 1))))))))
(assert
 (let ((?x105 (ite m_2_3_w2_p1 1 0)))
 (let ((?x104 (ite m_2_3_w2_p0 1 0)))
 (let ((?x103 (ite m_2_3_w1_p1 1 0)))
 (let ((?x102 (ite m_2_3_w1_p0 1 0)))
 (let ((?x101 (ite m_2_3_w0_p1 1 0)))
 (let ((?x100 (ite m_2_3_w0_p0 1 0)))
 (= (+ ?x100 ?x101 ?x102 ?x103 ?x104 ?x105) 1))))))))
(assert
 (let ((?x100 (ite m_2_3_w0_p0 1 0)))
 (let ((?x92 (ite m_1_3_w0_p0 1 0)))
 (let ((?x84 (ite m_1_2_w0_p0 1 0)))
 (let ((?x76 (ite m_0_3_w0_p0 1 0)))
 (let ((?x68 (ite m_0_2_w0_p0 1 0)))
 (let ((?x43 (ite m_0_1_w0_p0 1 0)))
 (= (+ ?x43 ?x68 ?x76 ?x84 ?x92 ?x100) 1))))))))
(assert
 (let ((?x101 (ite m_2_3_w0_p1 1 0)))
 (let ((?x93 (ite m_1_3_w0_p1 1 0)))
 (let ((?x85 (ite m_1_2_w0_p1 1 0)))
 (let ((?x77 (ite m_0_3_w0_p1 1 0)))
 (let ((?x69 (ite m_0_2_w0_p1 1 0)))
 (let ((?x44 (ite m_0_1_w0_p1 1 0)))
 (= (+ ?x44 ?x69 ?x77 ?x85 ?x93 ?x101) 1))))))))
(assert
 (let ((?x102 (ite m_2_3_w1_p0 1 0)))
 (let ((?x94 (ite m_1_3_w1_p0 1 0)))
 (let ((?x86 (ite m_1_2_w1_p0 1 0)))
 (let ((?x78 (ite m_0_3_w1_p0 1 0)))
 (let ((?x70 (ite m_0_2_w1_p0 1 0)))
 (let ((?x45 (ite m_0_1_w1_p0 1 0)))
 (= (+ ?x45 ?x70 ?x78 ?x86 ?x94 ?x102) 1))))))))
(assert
 (let ((?x103 (ite m_2_3_w1_p1 1 0)))
 (let ((?x95 (ite m_1_3_w1_p1 1 0)))
 (let ((?x87 (ite m_1_2_w1_p1 1 0)))
 (let ((?x79 (ite m_0_3_w1_p1 1 0)))
 (let ((?x71 (ite m_0_2_w1_p1 1 0)))
 (let ((?x46 (ite m_0_1_w1_p1 1 0)))
 (= (+ ?x46 ?x71 ?x79 ?x87 ?x95 ?x103) 1))))))))
(assert
 (let ((?x104 (ite m_2_3_w2_p0 1 0)))
 (let ((?x96 (ite m_1_3_w2_p0 1 0)))
 (let ((?x88 (ite m_1_2_w2_p0 1 0)))
 (let ((?x80 (ite m_0_3_w2_p0 1 0)))
 (let ((?x72 (ite m_0_2_w2_p0 1 0)))
 (let ((?x47 (ite m_0_1_w2_p0 1 0)))
 (= (+ ?x47 ?x72 ?x80 ?x88 ?x96 ?x104) 1))))))))
(assert
 (let ((?x105 (ite m_2_3_w2_p1 1 0)))
 (let ((?x97 (ite m_1_3_w2_p1 1 0)))
 (let ((?x89 (ite m_1_2_w2_p1 1 0)))
 (let ((?x81 (ite m_0_3_w2_p1 1 0)))
 (let ((?x73 (ite m_0_2_w2_p1 1 0)))
 (let ((?x48 (ite m_0_1_w2_p1 1 0)))
 (= (+ ?x48 ?x73 ?x81 ?x89 ?x97 ?x105) 1))))))))
(assert
 (let ((?x77 (ite m_0_3_w0_p1 1 0)))
 (let ((?x76 (ite m_0_3_w0_p0 1 0)))
 (let ((?x69 (ite m_0_2_w0_p1 1 0)))
 (let ((?x68 (ite m_0_2_w0_p0 1 0)))
 (let ((?x44 (ite m_0_1_w0_p1 1 0)))
 (let ((?x43 (ite m_0_1_w0_p0 1 0)))
 (= (+ ?x43 ?x44 ?x68 ?x69 ?x76 ?x77) 1))))))))
(assert
 (let ((?x79 (ite m_0_3_w1_p1 1 0)))
 (let ((?x78 (ite m_0_3_w1_p0 1 0)))
 (let ((?x71 (ite m_0_2_w1_p1 1 0)))
 (let ((?x70 (ite m_0_2_w1_p0 1 0)))
 (let ((?x46 (ite m_0_1_w1_p1 1 0)))
 (let ((?x45 (ite m_0_1_w1_p0 1 0)))
 (= (+ ?x45 ?x46 ?x70 ?x71 ?x78 ?x79) 1))))))))
(assert
 (let ((?x81 (ite m_0_3_w2_p1 1 0)))
 (let ((?x80 (ite m_0_3_w2_p0 1 0)))
 (let ((?x73 (ite m_0_2_w2_p1 1 0)))
 (let ((?x72 (ite m_0_2_w2_p0 1 0)))
 (let ((?x48 (ite m_0_1_w2_p1 1 0)))
 (let ((?x47 (ite m_0_1_w2_p0 1 0)))
 (= (+ ?x47 ?x48 ?x72 ?x73 ?x80 ?x81) 1))))))))
(assert
 (let ((?x93 (ite m_1_3_w0_p1 1 0)))
 (let ((?x92 (ite m_1_3_w0_p0 1 0)))
 (let ((?x85 (ite m_1_2_w0_p1 1 0)))
 (let ((?x84 (ite m_1_2_w0_p0 1 0)))
 (let ((?x44 (ite m_0_1_w0_p1 1 0)))
 (let ((?x43 (ite m_0_1_w0_p0 1 0)))
 (= (+ ?x43 ?x44 ?x84 ?x85 ?x92 ?x93) 1))))))))
(assert
 (let ((?x95 (ite m_1_3_w1_p1 1 0)))
 (let ((?x94 (ite m_1_3_w1_p0 1 0)))
 (let ((?x87 (ite m_1_2_w1_p1 1 0)))
 (let ((?x86 (ite m_1_2_w1_p0 1 0)))
 (let ((?x46 (ite m_0_1_w1_p1 1 0)))
 (let ((?x45 (ite m_0_1_w1_p0 1 0)))
 (= (+ ?x45 ?x46 ?x86 ?x87 ?x94 ?x95) 1))))))))
(assert
 (let ((?x97 (ite m_1_3_w2_p1 1 0)))
 (let ((?x96 (ite m_1_3_w2_p0 1 0)))
 (let ((?x89 (ite m_1_2_w2_p1 1 0)))
 (let ((?x88 (ite m_1_2_w2_p0 1 0)))
 (let ((?x48 (ite m_0_1_w2_p1 1 0)))
 (let ((?x47 (ite m_0_1_w2_p0 1 0)))
 (= (+ ?x47 ?x48 ?x88 ?x89 ?x96 ?x97) 1))))))))
(assert
 (let ((?x101 (ite m_2_3_w0_p1 1 0)))
 (let ((?x100 (ite m_2_3_w0_p0 1 0)))
 (let ((?x85 (ite m_1_2_w0_p1 1 0)))
 (let ((?x84 (ite m_1_2_w0_p0 1 0)))
 (let ((?x69 (ite m_0_2_w0_p1 1 0)))
 (let ((?x68 (ite m_0_2_w0_p0 1 0)))
 (= (+ ?x68 ?x69 ?x84 ?x85 ?x100 ?x101) 1))))))))
(assert
 (let ((?x103 (ite m_2_3_w1_p1 1 0)))
 (let ((?x102 (ite m_2_3_w1_p0 1 0)))
 (let ((?x87 (ite m_1_2_w1_p1 1 0)))
 (let ((?x86 (ite m_1_2_w1_p0 1 0)))
 (let ((?x71 (ite m_0_2_w1_p1 1 0)))
 (let ((?x70 (ite m_0_2_w1_p0 1 0)))
 (= (+ ?x70 ?x71 ?x86 ?x87 ?x102 ?x103) 1))))))))
(assert
 (let ((?x105 (ite m_2_3_w2_p1 1 0)))
 (let ((?x104 (ite m_2_3_w2_p0 1 0)))
 (let ((?x89 (ite m_1_2_w2_p1 1 0)))
 (let ((?x88 (ite m_1_2_w2_p0 1 0)))
 (let ((?x73 (ite m_0_2_w2_p1 1 0)))
 (let ((?x72 (ite m_0_2_w2_p0 1 0)))
 (= (+ ?x72 ?x73 ?x88 ?x89 ?x104 ?x105) 1))))))))
(assert
 (let ((?x101 (ite m_2_3_w0_p1 1 0)))
 (let ((?x100 (ite m_2_3_w0_p0 1 0)))
 (let ((?x93 (ite m_1_3_w0_p1 1 0)))
 (let ((?x92 (ite m_1_3_w0_p0 1 0)))
 (let ((?x77 (ite m_0_3_w0_p1 1 0)))
 (let ((?x76 (ite m_0_3_w0_p0 1 0)))
 (= (+ ?x76 ?x77 ?x92 ?x93 ?x100 ?x101) 1))))))))
(assert
 (let ((?x103 (ite m_2_3_w1_p1 1 0)))
 (let ((?x102 (ite m_2_3_w1_p0 1 0)))
 (let ((?x95 (ite m_1_3_w1_p1 1 0)))
 (let ((?x94 (ite m_1_3_w1_p0 1 0)))
 (let ((?x79 (ite m_0_3_w1_p1 1 0)))
 (let ((?x78 (ite m_0_3_w1_p0 1 0)))
 (= (+ ?x78 ?x79 ?x94 ?x95 ?x102 ?x103) 1))))))))
(assert
 (let ((?x105 (ite m_2_3_w2_p1 1 0)))
 (let ((?x104 (ite m_2_3_w2_p0 1 0)))
 (let ((?x97 (ite m_1_3_w2_p1 1 0)))
 (let ((?x96 (ite m_1_3_w2_p0 1 0)))
 (let ((?x81 (ite m_0_3_w2_p1 1 0)))
 (let ((?x80 (ite m_0_3_w2_p0 1 0)))
 (= (+ ?x80 ?x81 ?x96 ?x97 ?x104 ?x105) 1))))))))
(assert
 (let ((?x80 (ite m_0_3_w2_p0 1 0)))
 (let ((?x78 (ite m_0_3_w1_p0 1 0)))
 (let ((?x76 (ite m_0_3_w0_p0 1 0)))
 (let ((?x72 (ite m_0_2_w2_p0 1 0)))
 (let ((?x70 (ite m_0_2_w1_p0 1 0)))
 (let ((?x68 (ite m_0_2_w0_p0 1 0)))
 (let ((?x47 (ite m_0_1_w2_p0 1 0)))
 (let ((?x45 (ite m_0_1_w1_p0 1 0)))
 (let ((?x43 (ite m_0_1_w0_p0 1 0)))
 (<= (+ ?x43 ?x45 ?x47 ?x68 ?x70 ?x72 ?x76 ?x78 ?x80) 2)))))))))))
(assert
 (let ((?x81 (ite m_0_3_w2_p1 1 0)))
 (let ((?x79 (ite m_0_3_w1_p1 1 0)))
 (let ((?x77 (ite m_0_3_w0_p1 1 0)))
 (let ((?x73 (ite m_0_2_w2_p1 1 0)))
 (let ((?x71 (ite m_0_2_w1_p1 1 0)))
 (let ((?x69 (ite m_0_2_w0_p1 1 0)))
 (let ((?x48 (ite m_0_1_w2_p1 1 0)))
 (let ((?x46 (ite m_0_1_w1_p1 1 0)))
 (let ((?x44 (ite m_0_1_w0_p1 1 0)))
 (<= (+ ?x44 ?x46 ?x48 ?x69 ?x71 ?x73 ?x77 ?x79 ?x81) 2)))))))))))
(assert
 (let ((?x96 (ite m_1_3_w2_p0 1 0)))
 (let ((?x94 (ite m_1_3_w1_p0 1 0)))
 (let ((?x92 (ite m_1_3_w0_p0 1 0)))
 (let ((?x88 (ite m_1_2_w2_p0 1 0)))
 (let ((?x86 (ite m_1_2_w1_p0 1 0)))
 (let ((?x84 (ite m_1_2_w0_p0 1 0)))
 (let ((?x47 (ite m_0_1_w2_p0 1 0)))
 (let ((?x45 (ite m_0_1_w1_p0 1 0)))
 (let ((?x43 (ite m_0_1_w0_p0 1 0)))
 (<= (+ ?x43 ?x45 ?x47 ?x84 ?x86 ?x88 ?x92 ?x94 ?x96) 2)))))))))))
(assert
 (let ((?x97 (ite m_1_3_w2_p1 1 0)))
 (let ((?x95 (ite m_1_3_w1_p1 1 0)))
 (let ((?x93 (ite m_1_3_w0_p1 1 0)))
 (let ((?x89 (ite m_1_2_w2_p1 1 0)))
 (let ((?x87 (ite m_1_2_w1_p1 1 0)))
 (let ((?x85 (ite m_1_2_w0_p1 1 0)))
 (let ((?x48 (ite m_0_1_w2_p1 1 0)))
 (let ((?x46 (ite m_0_1_w1_p1 1 0)))
 (let ((?x44 (ite m_0_1_w0_p1 1 0)))
 (<= (+ ?x44 ?x46 ?x48 ?x85 ?x87 ?x89 ?x93 ?x95 ?x97) 2)))))))))))
(assert
 (let ((?x104 (ite m_2_3_w2_p0 1 0)))
 (let ((?x102 (ite m_2_3_w1_p0 1 0)))
 (let ((?x100 (ite m_2_3_w0_p0 1 0)))
 (let ((?x88 (ite m_1_2_w2_p0 1 0)))
 (let ((?x86 (ite m_1_2_w1_p0 1 0)))
 (let ((?x84 (ite m_1_2_w0_p0 1 0)))
 (let ((?x72 (ite m_0_2_w2_p0 1 0)))
 (let ((?x70 (ite m_0_2_w1_p0 1 0)))
 (let ((?x68 (ite m_0_2_w0_p0 1 0)))
 (<= (+ ?x68 ?x70 ?x72 ?x84 ?x86 ?x88 ?x100 ?x102 ?x104) 2)))))))))))
(assert
 (let ((?x105 (ite m_2_3_w2_p1 1 0)))
 (let ((?x103 (ite m_2_3_w1_p1 1 0)))
 (let ((?x101 (ite m_2_3_w0_p1 1 0)))
 (let ((?x89 (ite m_1_2_w2_p1 1 0)))
 (let ((?x87 (ite m_1_2_w1_p1 1 0)))
 (let ((?x85 (ite m_1_2_w0_p1 1 0)))
 (let ((?x73 (ite m_0_2_w2_p1 1 0)))
 (let ((?x71 (ite m_0_2_w1_p1 1 0)))
 (let ((?x69 (ite m_0_2_w0_p1 1 0)))
 (<= (+ ?x69 ?x71 ?x73 ?x85 ?x87 ?x89 ?x101 ?x103 ?x105) 2)))))))))))
(assert
 (let ((?x104 (ite m_2_3_w2_p0 1 0)))
 (let ((?x102 (ite m_2_3_w1_p0 1 0)))
 (let ((?x100 (ite m_2_3_w0_p0 1 0)))
 (let ((?x96 (ite m_1_3_w2_p0 1 0)))
 (let ((?x94 (ite m_1_3_w1_p0 1 0)))
 (let ((?x92 (ite m_1_3_w0_p0 1 0)))
 (let ((?x80 (ite m_0_3_w2_p0 1 0)))
 (let ((?x78 (ite m_0_3_w1_p0 1 0)))
 (let ((?x76 (ite m_0_3_w0_p0 1 0)))
 (<= (+ ?x76 ?x78 ?x80 ?x92 ?x94 ?x96 ?x100 ?x102 ?x104) 2)))))))))))
(assert
 (let ((?x105 (ite m_2_3_w2_p1 1 0)))
 (let ((?x103 (ite m_2_3_w1_p1 1 0)))
 (let ((?x101 (ite m_2_3_w0_p1 1 0)))
 (let ((?x97 (ite m_1_3_w2_p1 1 0)))
 (let ((?x95 (ite m_1_3_w1_p1 1 0)))
 (let ((?x93 (ite m_1_3_w0_p1 1 0)))
 (let ((?x81 (ite m_0_3_w2_p1 1 0)))
 (let ((?x79 (ite m_0_3_w1_p1 1 0)))
 (let ((?x77 (ite m_0_3_w0_p1 1 0)))
 (<= (+ ?x77 ?x79 ?x81 ?x93 ?x95 ?x97 ?x101 ?x103 ?x105) 2)))))))))))
(assert
 m_0_1_w0_p0)
(assert
 (let ((?x178 (ite m_2_3_w0_p1 12 0)))
 (let ((?x177 (ite m_1_3_w0_p1 8 0)))
 (let ((?x176 (ite m_1_2_w0_p1 7 0)))
 (let ((?x175 (ite m_0_3_w0_p1 4 0)))
 (let ((?x174 (ite m_0_2_w0_p1 3 0)))
 (let ((?x173 (ite m_0_1_w0_p1 2 0)))
 (let ((?x179 (+ ?x173 ?x174 ?x175 ?x176 ?x177 ?x178)))
 (let ((?x171 (ite m_2_3_w0_p0 12 0)))
 (let ((?x169 (ite m_1_3_w0_p0 8 0)))
 (let ((?x167 (ite m_1_2_w0_p0 7 0)))
 (let ((?x165 (ite m_0_3_w0_p0 4 0)))
 (let ((?x163 (ite m_0_2_w0_p0 3 0)))
 (let ((?x161 (ite m_0_1_w0_p0 2 0)))
 (let ((?x172 (+ ?x161 ?x163 ?x165 ?x167 ?x169 ?x171)))
 (<= ?x172 ?x179))))))))))))))))
(assert
 (let ((?x195 (ite m_2_3_w1_p0 12 0)))
 (let ((?x194 (ite m_1_3_w1_p0 8 0)))
 (let ((?x193 (ite m_1_2_w1_p0 7 0)))
 (let ((?x192 (ite m_0_3_w1_p0 4 0)))
 (let ((?x191 (ite m_0_2_w1_p0 3 0)))
 (let ((?x190 (ite m_0_1_w1_p0 2 0)))
 (let ((?x196 (+ ?x190 ?x191 ?x192 ?x193 ?x194 ?x195)))
 (let ((?x171 (ite m_2_3_w0_p0 12 0)))
 (let ((?x169 (ite m_1_3_w0_p0 8 0)))
 (let ((?x167 (ite m_1_2_w0_p0 7 0)))
 (let ((?x165 (ite m_0_3_w0_p0 4 0)))
 (let ((?x163 (ite m_0_2_w0_p0 3 0)))
 (let ((?x161 (ite m_0_1_w0_p0 2 0)))
 (let ((?x172 (+ ?x161 ?x163 ?x165 ?x167 ?x169 ?x171)))
 (<= ?x172 ?x196))))))))))))))))
(assert
 (let ((?x202 (ite m_2_3_w2_p0 12 0)))
(let ((?x201 (ite m_1_3_w2_p0 8 0)))
(let ((?x200 (ite m_1_2_w2_p0 7 0)))
(let ((?x199 (ite m_0_3_w2_p0 4 0)))
(let ((?x198 (ite m_0_2_w2_p0 3 0)))
(let ((?x197 (ite m_0_1_w2_p0 2 0)))
(let ((?x203 (+ ?x197 ?x198 ?x199 ?x200 ?x201 ?x202)))
(let ((?x195 (ite m_2_3_w1_p0 12 0)))
(let ((?x194 (ite m_1_3_w1_p0 8 0)))
(let ((?x193 (ite m_1_2_w1_p0 7 0)))
(let ((?x192 (ite m_0_3_w1_p0 4 0)))
(let ((?x191 (ite m_0_2_w1_p0 3 0)))
(let ((?x190 (ite m_0_1_w1_p0 2 0)))
(let ((?x196 (+ ?x190 ?x191 ?x192 ?x193 ?x194 ?x195)))
(<= ?x196 ?x203))))))))))))))))
(check-sat)
